SDVRP instances/custom_instances/p02_5_split0.vrp
NAME:p02_5_split
BEST_KNOWN: 0
COMMENT: 0
DIMENSION: 379
CAPACITY: 140
EDGE_WEIGHT_FORMAT: FUNCTION
EDGE_WEIGHT_TYPE: EXACT_2D
NODE_COORD_SECTION
1 0.00000 0.00000
2 -2 42
3 -2 42
4 -2 42
5 13 12
6 13 12
7 13 12
8 -50 -24
9 -50 -24
10 -50 -24
11 -50 -24
12 -50 -24
13 -50 -24
14 48 39
15 48 39
16 48 39
17 -14 29
18 -14 29
19 -14 29
20 -14 29
21 -14 29
22 -14 29
23 -14 29
24 -14 29
25 -27 8
26 -27 8
27 -27 8
28 -27 8
29 -27 8
30 -27 8
31 -21 37
32 -21 37
33 -21 37
34 -21 37
35 -21 37
36 49 -30
37 49 -30
38 49 -30
39 19 19
40 19 19
41 19 19
42 19 19
43 19 19
44 19 19
45 19 19
46 47 13
47 47 13
48 47 13
49 47 13
50 47 13
51 47 13
52 19 46
53 19 46
54 19 46
55 19 46
56 19 46
57 19 46
58 19 46
59 19 46
60 -2 -37
61 -2 -37
62 -2 -37
63 -2 -37
64 -2 -37
65 -2 -37
66 -2 -37
67 -2 -37
68 -22 26
69 -22 26
70 -22 26
71 43 33
72 43 33
73 43 33
74 43 33
75 43 33
76 43 33
77 50 -35
78 50 -35
79 50 -35
80 50 -35
81 50 -35
82 -50 -30
83 -50 -30
84 -50 -30
85 -50 -30
86 -50 -30
87 -50 -30
88 -8 -25
89 -8 -25
90 -8 -25
91 -8 -25
92 -8 -25
93 -8 -25
94 39 -48
95 39 -48
96 39 -48
97 39 -48
98 39 -48
99 39 -48
100 39 -48
101 39 -48
102 29 -31
103 29 -31
104 29 -31
105 29 -31
106 29 -31
107 29 -31
108 29 -31
109 -48 7
110 -48 7
111 33 50
112 33 50
113 33 50
114 33 50
115 33 50
116 33 50
117 -15 8
118 -15 8
119 -15 8
120 -15 8
121 -15 8
122 -2 -44
123 -2 -44
124 -2 -44
125 -2 -44
126 -2 -44
127 -2 -44
128 -2 -44
129 14 -11
130 14 -11
131 14 -11
132 14 -11
133 14 -11
134 -39 -46
135 -39 -46
136 -39 -46
137 -10 -28
138 -10 -28
139 -10 -28
140 -10 -28
141 -10 -28
142 -40 6
143 -40 6
144 -40 6
145 -40 6
146 -3 12
147 -3 12
148 -3 12
149 -3 12
150 -3 12
151 -3 12
152 -3 12
153 3 -8
154 3 -8
155 3 -8
156 3 -8
157 3 -8
158 3 -8
159 3 -8
160 -9 43
161 -9 43
162 -9 43
163 -9 43
164 -7 27
165 -7 27
166 -7 27
167 -7 27
168 -7 27
169 -7 27
170 -7 27
171 -7 27
172 17 22
173 17 22
174 17 22
175 17 22
176 -15 13
177 -15 13
178 27 45
179 27 45
180 27 45
181 -1 -42
182 -1 -42
183 -1 -42
184 -1 -42
185 -1 -42
186 -1 -42
187 -1 -42
188 -1 -42
189 -45 -12
190 -45 -12
191 -45 -12
192 48 -5
193 48 -5
194 48 -5
195 48 -5
196 48 -5
197 -42 27
198 -42 27
199 -42 27
200 -42 27
201 -42 27
202 -42 27
203 -42 27
204 -42 27
205 -10 -17
206 -10 -17
207 -10 -17
208 -10 -17
209 -10 -17
210 -10 -17
211 -10 -17
212 -10 -17
213 -10 -17
214 -3 3
215 -3 3
216 -3 3
217 -3 3
218 28 -41
219 28 -41
220 28 -41
221 -22 31
222 -22 31
223 -22 31
224 6 -18
225 6 -18
226 6 -18
227 6 -18
228 6 -18
229 6 -18
230 -17 10
231 -17 10
232 -17 10
233 -17 10
234 -17 10
235 -17 10
236 -17 10
237 -31 -34
238 -31 -34
239 -31 -34
240 -31 -34
241 -31 -34
242 -31 -34
243 -31 -34
244 -12 5
245 -12 5
246 -12 5
247 -12 5
248 -12 5
249 -12 5
250 -12 5
251 -12 5
252 -12 5
253 -20 -20
254 -20 -20
255 -20 -20
256 -20 -20
257 -47 -43
258 -47 -43
259 -47 -43
260 -47 -43
261 -47 -43
262 -47 -43
263 40 -49
264 40 -49
265 40 -49
266 40 -49
267 40 -49
268 40 -49
269 11 -14
270 11 -14
271 11 -14
272 11 -14
273 11 -14
274 11 -14
275 11 -14
276 14 45
277 14 45
278 14 45
279 14 45
280 14 45
281 -50 -48
282 -50 -48
283 8 -24
284 8 -24
285 -9 8
286 -9 8
287 -9 8
288 -9 8
289 -9 8
290 -9 8
291 -9 8
292 -8 31
293 -8 31
294 21 -30
295 21 -30
296 21 -30
297 21 -30
298 21 -30
299 21 -30
300 -10 35
301 -10 35
302 -10 35
303 -10 35
304 -10 35
305 -2 4
306 -2 4
307 -2 4
308 -2 4
309 28 -16
310 28 -16
311 28 -16
312 -5 8
313 -5 8
314 -5 8
315 20 19
316 20 19
317 -41 13
318 -41 13
319 -41 13
320 -41 13
321 -41 13
322 -41 13
323 -43 33
324 -43 33
325 -37 -44
326 -37 -44
327 -37 -44
328 -37 -44
329 -37 -44
330 -37 -44
331 -37 -44
332 -37 -44
333 9 40
334 9 40
335 9 40
336 9 40
337 9 40
338 -44 47
339 -44 47
340 26 -21
341 26 -21
342 26 -21
343 16 47
344 16 47
345 16 47
346 -48 26
347 -48 26
348 -48 26
349 -48 26
350 -18 -26
351 -18 -26
352 -18 -26
353 -18 -26
354 -18 -26
355 -18 -26
356 -32 -46
357 -32 -46
358 -32 -46
359 -32 -46
360 -32 -46
361 -32 -46
362 -32 -46
363 -19 -5
364 -19 -5
365 -19 -5
366 -17 -5
367 -17 -5
368 -17 -5
369 8 -14
370 8 -14
371 8 -14
372 8 -14
373 8 -14
374 8 -14
375 8 -14
376 -1 -50
377 -1 -50
378 -1 -50
379 -1 -50
DEMAND_SECTION
1 0
2 28
3 7
4 1
5 28
6 28
7 7
8 28
9 14
10 1
11 1
12 1
13 1
14 14
15 7
16 1
17 28
18 7
19 1
20 1
21 1
22 1
23 1
24 1
25 28
26 14
27 7
28 1
29 1
30 1
31 28
32 14
33 7
34 1
35 1
36 28
37 7
38 1
39 14
40 7
41 1
42 1
43 1
44 1
45 1
46 28
47 28
48 1
49 1
50 1
51 1
52 28
53 14
54 7
55 1
56 1
57 1
58 1
59 1
60 28
61 14
62 1
63 1
64 1
65 1
66 1
67 1
68 28
69 28
70 1
71 28
72 14
73 7
74 1
75 1
76 1
77 14
78 1
79 1
80 1
81 1
82 14
83 1
84 1
85 1
86 1
87 1
88 28
89 1
90 1
91 1
92 1
93 1
94 28
95 14
96 1
97 1
98 1
99 1
100 1
101 1
102 28
103 14
104 7
105 1
106 1
107 1
108 1
109 28
110 28
111 28
112 28
113 1
114 1
115 1
116 1
117 28
118 28
119 7
120 1
121 1
122 28
123 28
124 1
125 1
126 1
127 1
128 1
129 14
130 1
131 1
132 1
133 1
134 28
135 28
136 1
137 28
138 28
139 7
140 1
141 1
142 28
143 1
144 1
145 1
146 14
147 7
148 1
149 1
150 1
151 1
152 1
153 14
154 7
155 1
156 1
157 1
158 1
159 1
160 28
161 14
162 7
163 1
164 28
165 7
166 1
167 1
168 1
169 1
170 1
171 1
172 28
173 7
174 1
175 1
176 14
177 7
178 28
179 7
180 1
181 28
182 14
183 7
184 1
185 1
186 1
187 1
188 1
189 28
190 14
191 7
192 28
193 28
194 1
195 1
196 1
197 28
198 7
199 1
200 1
201 1
202 1
203 1
204 1
205 28
206 14
207 7
208 1
209 1
210 1
211 1
212 1
213 1
214 28
215 28
216 7
217 1
218 28
219 28
220 1
221 28
222 14
223 7
224 14
225 1
226 1
227 1
228 1
229 1
230 28
231 1
232 1
233 1
234 1
235 1
236 1
237 28
238 28
239 7
240 1
241 1
242 1
243 1
244 28
245 14
246 7
247 1
248 1
249 1
250 1
251 1
252 1
253 28
254 7
255 1
256 1
257 28
258 28
259 1
260 1
261 1
262 1
263 28
264 28
265 1
266 1
267 1
268 1
269 28
270 1
271 1
272 1
273 1
274 1
275 1
276 28
277 28
278 1
279 1
280 1
281 28
282 7
283 28
284 28
285 28
286 14
287 1
288 1
289 1
290 1
291 1
292 28
293 1
294 28
295 1
296 1
297 1
298 1
299 1
300 14
301 7
302 1
303 1
304 1
305 28
306 28
307 7
308 1
309 28
310 28
311 7
312 28
313 28
314 7
315 14
316 7
317 28
318 28
319 1
320 1
321 1
322 1
323 14
324 7
325 14
326 7
327 1
328 1
329 1
330 1
331 1
332 1
333 28
334 28
335 7
336 1
337 1
338 28
339 28
340 28
341 28
342 14
343 28
344 1
345 1
346 28
347 14
348 1
349 1
350 14
351 1
352 1
353 1
354 1
355 1
356 28
357 7
358 1
359 1
360 1
361 1
362 1
363 28
364 28
365 1
366 28
367 28
368 7
369 14
370 1
371 1
372 1
373 1
374 1
375 1
376 28
377 1
378 1
379 1
DEPOT_SECTION
1
-1
EOF