SDVRP instances/custom_instances/p02_5_split0.sol
378 -5 6 4 39 44 43 42 40 41 38 314 315 174 173 171 -19 21 32 33 34 30 31 337 338 322 323 198 201 197 -22 18 20 16 17 23 300 291 292 163 166 169 167 164 168 170 165 151 146 145 149 150 -27 29 25 26 28 24 109 108 144 143 142 141 -45 50 49 47 48 46 13 15 14 70 75 72 71 74 73 -52 56 54 55 342 344 343 276 275 277 279 278 336 335 332 -53 58 57 51 115 114 111 110 112 113 177 178 179 172 -65 63 59 124 127 125 122 121 180 187 182 181 186 -66 62 60 64 61 185 183 184 123 126 376 378 375 377 355 358 359 361 356 357 360 133 324 329 327 331 330 -82 83 85 81 84 86 8 11 9 12 10 7 190 189 188 -91 90 92 88 89 87 138 140 139 137 136 206 209 208 204 207 -101 102 103 217 218 219 298 296 295 297 293 294 -119 120 235 234 203 200 202 196 199 346 347 348 345 317 320 321 316 318 319 -130 129 132 128 131 77 79 80 78 76 36 35 37 195 194 193 192 191 -147 148 302 301 303 299 161 162 159 160 1 3 2 334 333 -152 156 155 158 153 157 154 226 224 225 227 228 223 283 282 268 269 270 272 273 -212 205 210 211 350 349 240 236 239 238 237 253 252 254 255 -216 214 215 213 306 307 305 304 -222 221 220 69 67 68 175 176 251 248 247 245 246 -231 229 232 233 230 116 118 117 249 243 244 250 -259 256 261 260 257 258 281 280 135 134 325 328 326 242 241 352 353 354 351 -271 274 107 106 105 104 265 267 266 264 262 263 95 93 97 96 98 100 94 99 372 368 369 373 371 374 370 -285 287 289 284 288 286 290 312 311 313 -310 309 308 341 340 339 -364 362 363 365 367 366 0 





OBJ=
2299.340
BEST_KNOWN=
0.000